/* Objective function */
min: +5 C1 +25 C2 +50 C3 +200 C4 +50 C5 +50 C6 +5 C7 +C8 +30 C9 +25 C10 +25 C11 +5 C12 +C13 +C14 +C15 +C16
 +0.1 C17 +10 C18 +C19 +C20;

/* Constraints */
+14000 C1 +61476 C2 +102492 C3 +350000 C4 +81960 C5 +69672 C6 +6527 C7 +35900 C9 +27639 C11 +212 C12
 +10 C17 +4076 C18 +120 C19 >= 200000;
+14000 C1 +61476 C2 +102492 C3 +350000 C4 +81960 C5 +69672 C6 +6527 C7 +35900 C9 +27639 C11 +212 C12
 +10 C17 +4076 C18 +120 C19 <= 400000;
+1000 C1 +16055 C2 +26293 C3 +75000 C4 +21174 C5 +17814 C6 +94 C7 +940 C8 +26450 C9 +21330 C10 +15525 C11
 +3072 C12 +80 C13 +20 C15 +510 C16 +11 C17 +1479 C18 +50 C19 +460 C20 >= 0;
+1000 C1 +16055 C2 +26293 C3 +75000 C4 +21174 C5 +17814 C6 +94 C7 +940 C8 +26450 C9 +21330 C10 +15525 C11
 +3072 C12 +80 C13 +20 C15 +510 C16 +11 C17 +1479 C18 +50 C19 +460 C20 <= 10000;
+600 C1 +6477 C2 +8772 C3 +30000 C4 +7752 C5 +5158 C6 +3 C7 +260 C9 +517 C10 +4429 C11 +990 C13 +780 C14
 +600 C15 +495 C16 +25 C17 +2172 C18 +50 C19 +20 C20 >= 0;
+600 C1 +6477 C2 +8772 C3 +30000 C4 +7752 C5 +5158 C6 +3 C7 +260 C9 +517 C10 +4429 C11 +990 C13 +780 C14
 +600 C15 +495 C16 +25 C17 +2172 C18 +50 C19 +20 C20 <= 10000;
+400 C1 +1756 C2 +2385 C3 +5000 C4 +2065 C5 +1085 C6 +7 C7 +20 C8 +20 C9 +1374 C11 +40 C13 +30 C14 +180 C15
 +30 C16 +10 C17 +420 C19 +30 C20 >= 0;
+400 C1 +1756 C2 +2385 C3 +5000 C4 +2065 C5 +1085 C6 +7 C7 +20 C8 +20 C9 +1374 C11 +40 C13 +30 C14 +180 C15
 +30 C16 +10 C17 +420 C19 +30 C20 <= 0;
+211 C2 +370 C3 +1000 C4 +292 C5 +309 C6 +C7 +30 C8 +20 C9 +78 C10 +537 C11 +40 C13 +10 C14 +40 C15 +35 C16
 +4 C17 +C18 +150 C19 +180 C20 >= 0;
+211 C2 +370 C3 +1000 C4 +292 C5 +309 C6 +C7 +30 C8 +20 C9 +78 C10 +537 C11 +40 C13 +10 C14 +40 C15 +35 C16
 +4 C17 +C18 +150 C19 +180 C20 <= 0;
+5 C2 +19 C3 +200 C4 +8 C5 +93 C6 +40 C8 +10 C9 +135 C11 +20 C13 +80 C14 +150 C15 +30 C16 +80 C19 +60 C20 >= 0;
+5 C2 +19 C3 +200 C4 +8 C5 +93 C6 +40 C8 +10 C9 +135 C11 +20 C13 +80 C14 +150 C15 +30 C16 +80 C19 +60 C20 <= 0;
+12 C2 +33 C3 +100 C4 +23 C5 +8 C6 +170 C8 +15 C10 +230 C11 +110 C13 +220 C14 +260 C15 +140 C16 +330 C19
 +400 C20 >= 0;
+12 C2 +33 C3 +100 C4 +23 C5 +8 C6 +170 C8 +15 C10 +230 C11 +110 C13 +220 C14 +260 C15 +140 C16 +330 C19
 +400 C20 <= 0;
R15: +2 C7 >= 0;
R16: +2 C7 <= 0;

/* Integer definitions */
int C1,C2,C3,C4,C5,C6,C7,C8,C9,C10,C11,C12,C13,C14,C15,C16,C17,C18,C19,C20,C21;
